NAME: ACTUAL_TOURS/amz2168
TYPE: TOUR
COMMENT: RouteID_e621b61d-2dda-449b-a17d-b49bfdc0d70b
DIMENSION: 83
TOUR_SECTION
73
53
39
41
69
17
54
71
62
21
52
43
2
56
72
3
16
51
68
7
18
30
65
1
44
45
64
63
76
35
79
29
8
81
5
57
31
6
32
15
48
33
36
27
14
83
4
23
19
12
40
47
22
74
80
42
50
11
66
20
13
38
9
34
75
59
67
60
25
24
37
61
82
46
55
70
58
28
78
77
49
10
26
-1
EOF
